Phonons at Gamma
 &inputph
  tr2_ph=1.0d-14,
  amass(1)=12.0107,
  amass(2)=1.007825035,
  prefix='diam-',
  outdir='./'
  fildyn='dynG',
  epsil=.true.
 /
 0.0 0.0 0.0
