dynmat.x
&input fildyn='dynG', asr='simple' /

