&CONTROL
    calculation = 'relax',
    restart_mode = 'from_scratch',
    prefix='diam-',
    outdir = './',
    pseudo_dir='/home/fcnv733/PROGRAMS/espressoHahn/pseudopotentials/',
    forc_conv_thr = 1.0D-17,
    etot_conv_thr = 1.0D-17,
 /
&system
    ibrav = 0, a=35.0, 
    nat= 34, ntyp= 2,
    ecutwfc = 30d0,
    nbnd = 51, 
/
&electrons
    conv_thr = 3.0e-16,
    electron_maxstep=150,
    mixing_beta = 0.7,
    mixing_mode = 'plain',
    diagonalization = 'david'
/


&IONS
/

ATOMIC_SPECIES
C   12.0107   C.pz-vbc.UPF
H   1.007825035  H.pz-vbc.UPF

ATOMIC_POSITIONS { angstrom }
C       19.739675114  20.624978973  19.739675114
C       20.610387097  21.523125658  18.841623451
C       20.623351920  19.742365441  20.623351920
C       18.841623451  21.523125658  20.610387097
C       19.739673723  22.393867505  21.508519796
C       21.508519796  22.393867505  19.739673723
C       21.511127865  20.622383889  21.511127865
C       20.610390573  23.291951539  20.610390573
C       20.623351900  21.510182020  22.391145447
C       22.391145447  21.510182020  20.623351900
C       19.726692485  24.174474245  19.726692485
C       18.838960105  23.294616785  18.838960105
C       19.726694449  22.406854692  17.959134427
C       17.959134427  22.406854692  19.726694449
H       19.094700082  19.992539498  19.094700082
H       18.209223187  20.878136696  21.255408282
H       21.255408282  20.878136696  18.209223187
H       19.991460066  19.085534040  21.252833813
H       21.252833813  19.085534040  19.991460066
H       23.048008420  20.880738227  19.991456898
H       19.991456898  20.880738227  23.048008420
H       19.094689867  23.038831816  22.140965088
H       22.140965088  23.038831816  19.094689867
H       22.149907040  19.983633035  22.149907040
H       21.255407483  23.924330646  21.255407483
H       21.252840719  22.142093936  23.047956251
H       23.047956251  22.142093936  21.252840719
H       20.358770615  24.831274316  19.097375218
H       19.097375218  24.831274316  20.358770615
H       17.302350410  23.036168075  20.358794553
H       20.358794553  23.036168075  17.302350410
H       18.200202219  23.933351306  18.200202219
H       19.097368537  21.774807012  17.302316568
H       17.302316568  21.774807012  19.097368537

CELL_PARAMETERS {cubic}
 1.00  0.00  0.00
 0.00  1.00  0.00
 0.00  0.00  1.00 

K_POINTS
 1
 0.0 0.0 0.0  1.0
