 &CONTROL
    calculation = 'scf',
    disk_io='low',
    tprnfor=.true.,
    nstep = 2000,
    restart_mode='from_scratch',
     prefix='diam-',
    outdir='./', 
     pseudo_dir='/home/fcnv733/PROGRAMS/espressoHahn/pseudopotentials/', 
 /


&system
    ibrav = 0, a=35.0, 
    nat= 34, ntyp= 2,
    ecutwfc = 30d0,
    nbnd = 51, 
/

&electrons
    startingwfc='atomic',
    conv_thr = 1.0e-12,
    electron_maxstep=150,
    mixing_beta = 0.7,
    mixing_mode = 'plain',
    diagonalization = 'david'
/



ATOMIC_SPECIES
C   12.0107   C.pz-vbc.UPF
H   1.007825035  H.pz-vbc.UPF

ATOMIC_POSITIONS { angstrom }
C       19.742335232  20.626027601  19.742335232
C       20.607632454  21.525857463  18.842606949
C       20.622467685  19.749983703  20.622467685
C       18.842606949  21.525857463  20.607632454
C       19.742371182  22.391119590  21.507429032
C       21.507429032  22.391119590  19.742371182
C       21.507111312  20.626283092  21.507111312
C       20.607674930  23.290920594  20.607674930
C       20.622504262  21.510955907  22.383420472
C       22.383420472  21.510955907  20.622504262
C       19.727587408  24.167008503  19.727587408
C       18.842916469  23.290754485  18.842916469
C       19.727555434  22.406067311  17.966629844
C       17.966629844  22.406067311  19.727555434
H       19.087775014  19.986541872  19.087775014
H       18.203324471  20.871218665  21.262354986
H       21.262354986  20.871218665  18.203324471
H       19.983356541  19.082212370  21.260115312
H       21.260115312  19.082212370  19.983356541
H       23.051291406  20.873414717  19.983389396
H       19.983389396  20.873414717  23.051291406
H       19.087847298  23.045675185  22.146979521
H       22.146979521  23.045675185  19.087847298
H       22.154674621  19.978796222  22.154674621
H       21.262387865  23.930150859  21.262387865
H       21.260161621  22.150108939  23.051164897
H       23.051164897  22.150108939  21.260161621
H       20.367014601  24.834697373  19.090200231
H       19.090200231  24.834697373  20.367014601
H       17.299011947  23.043490008  20.367020271
H       20.367020271  23.043490008  17.299011947
H       18.195424687  23.938276334  18.195424687
H       19.090118265  21.766737512  17.298908052
H       17.298908052  21.766737512  19.090118265


CELL_PARAMETERS {cubic}
 1.00  0.00  0.00
 0.00  1.00  0.00
 0.00  0.00  1.00 

K_POINTS
 1
 0.0 0.0 0.0  1.0
